1648
93 94 55 24 16 84 41 14 74 34 18 20 5 81 28 68 1 61 88 59 10 38 72 86 6 64 45 60 80 8 98 82 99 96 58 19 39 69 97 65 46 57 17 43 31 85 29 53 42 4 47 33 9 3 30 71 23 25 54 13 40 37 73 77 35 7 87 50 15 21 92 75 12 27 91 51 11 48 36 70 49 22 2 78 32 79 90 95 83 66 62 67 26 56 76 44 89 52 63 
